p cnf 412 698
-14 12 -8 76 0
-14 12 -8 -76 0
44 52 -53 77 0
44 52 -53 -77 0
73 -62 34 78 0
73 -62 34 -78 0
12 13 -58 79 0
12 13 -58 -79 0
53 35 69 80 0
53 35 69 -80 0
-62 38 -39 81 0
-62 38 -39 -81 0
40 1 -24 82 0
40 1 -24 -82 0
73 3 38 83 0
73 3 38 -83 0
40 -17 -46 84 0
40 -17 -46 -84 0
21 23 -20 85 0
21 23 -20 -85 0
42 22 -7 86 0
42 22 -7 -86 0
53 -56 -40 87 0
53 -56 -40 -87 0
53 70 -47 88 0
53 70 -47 -88 0
48 66 -69 89 0
48 66 -69 -89 0
4 -32 62 90 0
4 -32 62 -90 0
-67 13 -42 91 0
-67 13 -42 -91 0
-36 -71 38 92 0
-36 -71 38 -92 0
44 -49 -30 93 0
44 -49 -30 -93 0
-67 -37 -46 94 0
-67 -37 -46 -94 0
24 59 -14 95 0
24 59 -14 -95 0
-31 -73 72 96 0
-31 -73 72 -96 0
55 30 10 97 0
55 30 10 -97 0
52 73 -56 98 0
52 73 -56 -98 0
63 -4 -6 99 0
63 -4 -6 -99 0
15 13 -45 100 0
15 13 -45 -100 0
13 -53 -48 101 0
13 -53 -48 -101 0
25 -30 72 102 0
25 -30 72 -102 0
41 24 -22 103 0
41 24 -22 -103 0
-18 40 -72 104 0
-18 40 -72 -104 0
66 -41 27 105 0
66 -41 27 -105 0
-32 40 51 106 0
-32 40 51 -106 0
66 45 -15 107 0
66 45 -15 -107 0
66 -40 65 108 0
66 -40 65 -108 0
-3 -13 66 109 0
-3 -13 66 -109 0
57 -54 -60 110 0
57 -54 -60 -110 0
-12 -29 11 111 0
-12 -29 11 -111 0
4 62 70 112 0
4 62 70 -112 0
-58 2 -50 113 0
-58 2 -50 -113 0
-73 16 -58 114 0
-73 16 -58 -114 0
-7 72 24 115 0
-7 72 24 -115 0
-38 17 -50 116 0
-38 17 -50 -116 0
-74 7 -31 117 0
-74 7 -31 -117 0
-4 -7 -43 118 0
-4 -7 -43 -118 0
24 -52 72 119 0
24 -52 72 -119 0
-51 -47 8 120 0
-51 -47 8 -120 0
-20 -1 31 121 0
-20 -1 31 -121 0
-39 -48 -40 122 0
-39 -48 -40 -122 0
36 45 -70 123 0
36 45 -70 -123 0
-60 -47 -26 124 0
-60 -47 -26 -124 0
-67 28 38 125 0
-67 28 38 -125 0
-13 -46 -1 126 0
-13 -46 -1 -126 0
-1 -3 -23 127 0
-1 -3 -23 -127 0
28 33 -34 128 0
28 33 -34 -128 0
71 -20 28 129 0
71 -20 28 -129 0
-12 -67 -32 130 0
-12 -67 -32 -130 0
-49 -3 -29 131 0
-49 -3 -29 -131 0
-24 46 -70 132 0
-24 46 -70 -132 0
-36 -39 -23 133 0
-36 -39 -23 -133 0
50 57 3 134 0
50 57 3 -134 0
6 -15 -69 135 0
6 -15 -69 -135 0
-21 37 62 136 0
-21 37 62 -136 0
41 35 3 137 0
41 35 3 -137 0
-25 41 51 138 0
-25 41 51 -138 0
31 9 18 139 0
31 9 18 -139 0
36 -17 35 140 0
36 -17 35 -140 0
-13 -74 -58 141 0
-13 -74 -58 -141 0
32 -12 28 142 0
32 -12 28 -142 0
47 -71 74 143 0
47 -71 74 -143 0
59 74 -42 144 0
59 74 -42 -144 0
-21 67 -68 145 0
-21 67 -68 -145 0
-2 34 46 146 0
-2 34 46 -146 0
53 65 30 147 0
53 65 30 -147 0
38 69 -72 148 0
38 69 -72 -148 0
70 -74 -37 149 0
70 -74 -37 -149 0
12 21 60 150 0
12 21 60 -150 0
51 -3 -39 151 0
51 -3 -39 -151 0
-39 -40 61 152 0
-39 -40 61 -152 0
-69 -8 2 153 0
-69 -8 2 -153 0
-29 -38 16 154 0
-29 -38 16 -154 0
-59 10 36 155 0
-59 10 36 -155 0
48 65 38 156 0
48 65 38 -156 0
-7 -49 64 157 0
-7 -49 64 -157 0
1 36 41 158 0
1 36 41 -158 0
19 -53 -47 159 0
19 -53 -47 -159 0
50 -27 -53 160 0
50 -27 -53 -160 0
45 -41 -56 161 0
45 -41 -56 -161 0
32 -59 40 162 0
32 -59 40 -162 0
54 -51 -42 163 0
54 -51 -42 -163 0
-27 71 44 164 0
-27 71 44 -164 0
42 4 39 165 0
42 4 39 -165 0
-11 -58 -73 166 0
-11 -58 -73 -166 0
57 -22 32 167 0
57 -22 32 -167 0
-28 -20 58 168 0
-28 -20 58 -168 0
60 -65 -31 169 0
60 -65 -31 -169 0
41 -30 65 170 0
41 -30 65 -170 0
36 -59 -61 171 0
36 -59 -61 -171 0
-7 -31 72 172 0
-7 -31 72 -172 0
46 -4 58 173 0
46 -4 58 -173 0
63 57 -10 174 0
63 57 -10 -174 0
-4 -51 27 175 0
-4 -51 27 -175 0
-71 -14 60 176 0
-71 -14 60 -176 0
31 53 -65 177 0
31 53 -65 -177 0
-65 62 -45 178 0
-65 62 -45 -178 0
67 3 24 179 0
67 3 24 -179 0
74 25 -9 180 0
74 25 -9 -180 0
25 -14 -2 181 0
25 -14 -2 -181 0
-43 -26 -32 182 0
-43 -26 -32 -182 0
42 -28 43 183 0
42 -28 43 -183 0
5 -44 -33 184 0
5 -44 -33 -184 0
4 15 -1 185 0
4 15 -1 -185 0
-53 -47 65 186 0
-53 -47 65 -186 0
-29 -68 63 187 0
-29 -68 63 -187 0
59 12 57 188 0
59 12 57 -188 0
-35 31 -67 189 0
-35 31 -67 -189 0
-60 -40 72 190 0
-60 -40 72 -190 0
48 45 -1 191 0
48 45 -1 -191 0
-75 -60 35 192 0
-75 -60 35 -192 0
-16 -29 -17 193 0
-16 -29 -17 -193 0
20 14 72 194 0
20 14 72 -194 0
-69 -65 -72 195 0
-69 -65 -72 -195 0
19 -22 -34 196 0
19 -22 -34 -196 0
61 -59 50 197 0
61 -59 50 -197 0
-25 -62 48 198 0
-25 -62 48 -198 0
8 3 -40 199 0
8 3 -40 -199 0
38 -8 36 200 0
38 -8 36 -200 0
-23 16 32 201 0
-23 16 32 -201 0
46 -21 -74 202 0
46 -21 -74 -202 0
40 65 31 203 0
40 65 31 -203 0
39 -40 17 204 0
39 -40 17 -204 0
49 -6 39 205 0
49 -6 39 -205 0
-19 -62 52 206 0
-19 -62 52 -206 0
-67 12 -32 207 0
-67 12 -32 -207 0
-35 72 62 208 0
-35 72 62 -208 0
4 -47 57 209 0
4 -47 57 -209 0
51 24 -31 210 0
51 24 -31 -210 0
52 51 57 211 0
52 51 57 -211 0
-39 18 -35 212 0
-39 18 -35 -212 0
-67 42 -63 213 0
-67 42 -63 -213 0
-71 -35 43 214 0
-71 -35 43 -214 0
2 -31 -41 215 0
2 -31 -41 -215 0
28 -22 -49 216 0
28 -22 -49 -216 0
-31 13 18 217 0
-31 13 18 -217 0
-57 -75 67 218 0
-57 -75 67 -218 0
41 47 58 219 0
41 47 58 -219 0
-25 68 -65 220 0
-25 68 -65 -220 0
10 59 36 221 0
10 59 36 -221 0
-49 -46 53 222 0
-49 -46 53 -222 0
-21 53 70 223 0
-21 53 70 -223 0
31 -1 -38 224 0
31 -1 -38 -224 0
49 -31 -53 225 0
49 -31 -53 -225 0
-41 52 1 226 0
-41 52 1 -226 0
-32 55 14 227 0
-32 55 14 -227 0
17 -10 12 228 0
17 -10 12 -228 0
-37 -40 -30 229 0
-37 -40 -30 -229 0
-62 -38 24 230 0
-62 -38 24 -230 0
3 35 68 231 0
3 35 68 -231 0
-39 -50 57 232 0
-39 -50 57 -232 0
70 -62 -24 233 0
70 -62 -24 -233 0
-35 29 27 234 0
-35 29 27 -234 0
58 -15 -54 235 0
58 -15 -54 -235 0
23 -56 8 236 0
23 -56 8 -236 0
-18 23 -75 237 0
-18 23 -75 -237 0
12 70 30 238 0
12 70 30 -238 0
-22 36 52 239 0
-22 36 52 -239 0
-65 8 -19 240 0
-65 8 -19 -240 0
17 -37 52 241 0
17 -37 52 -241 0
-50 -69 -58 242 0
-50 -69 -58 -242 0
-18 -4 -52 243 0
-18 -4 -52 -243 0
-70 61 13 244 0
-70 61 13 -244 0
-50 -25 -45 245 0
-50 -25 -45 -245 0
-65 10 -21 246 0
-65 10 -21 -246 0
-1 -8 -66 247 0
-1 -8 -66 -247 0
40 -73 62 248 0
40 -73 62 -248 0
69 40 -12 249 0
69 40 -12 -249 0
43 -60 -71 250 0
43 -60 -71 -250 0
72 43 73 251 0
72 43 73 -251 0
14 -9 39 252 0
14 -9 39 -252 0
-62 -31 -18 253 0
-62 -31 -18 -253 0
74 -41 27 254 0
74 -41 27 -254 0
-56 14 -22 255 0
-56 14 -22 -255 0
40 -24 -42 256 0
40 -24 -42 -256 0
69 -54 -59 257 0
69 -54 -59 -257 0
-52 45 -5 258 0
-52 45 -5 -258 0
57 -17 -8 259 0
57 -17 -8 -259 0
-8 2 -67 260 0
-8 2 -67 -260 0
-24 52 33 261 0
-24 52 33 -261 0
54 -71 -67 262 0
54 -71 -67 -262 0
-62 -23 45 263 0
-62 -23 45 -263 0
-37 57 38 264 0
-37 57 38 -264 0
15 -16 -28 265 0
15 -16 -28 -265 0
72 23 -33 266 0
72 23 -33 -266 0
37 -62 45 267 0
37 -62 45 -267 0
-69 -59 45 268 0
-69 -59 45 -268 0
59 -1 -66 269 0
59 -1 -66 -269 0
-48 -59 14 270 0
-48 -59 14 -270 0
56 61 -35 271 0
56 61 -35 -271 0
62 52 29 272 0
62 52 29 -272 0
54 73 -8 273 0
54 73 -8 -273 0
33 -20 47 274 0
33 -20 47 -274 0
21 14 -1 275 0
21 14 -1 -275 0
47 68 -51 276 0
47 68 -51 -276 0
48 67 -42 277 0
48 67 -42 -277 0
26 2 44 278 0
26 2 44 -278 0
-6 57 -23 279 0
-6 57 -23 -279 0
-70 -24 2 280 0
-70 -24 2 -280 0
60 29 7 281 0
60 29 7 -281 0
-25 8 4 282 0
-25 8 4 -282 0
37 -35 -28 283 0
37 -35 -28 -283 0
8 -74 33 284 0
8 -74 33 -284 0
19 -45 -60 285 0
19 -45 -60 -285 0
-34 -24 71 286 0
-34 -24 71 -286 0
-53 -9 -37 287 0
-53 -9 -37 -287 0
8 -36 -5 288 0
8 -36 -5 -288 0
-11 48 -71 289 0
-11 48 -71 -289 0
-4 -21 -17 290 0
-4 -21 -17 -290 0
30 -74 -5 291 0
30 -74 -5 -291 0
55 -17 -72 292 0
55 -17 -72 -292 0
-62 -6 -31 293 0
-62 -6 -31 -293 0
-63 51 -43 294 0
-63 51 -43 -294 0
-30 23 65 295 0
-30 23 65 -295 0
27 -40 -28 296 0
27 -40 -28 -296 0
20 -44 9 297 0
20 -44 9 -297 0
12 -46 -43 298 0
12 -46 -43 -298 0
24 -29 -6 299 0
24 -29 -6 -299 0
37 70 -40 300 0
37 70 -40 -300 0
-34 44 22 301 0
-34 44 22 -301 0
9 -2 22 302 0
9 -2 22 -302 0
37 -32 40 303 0
37 -32 40 -303 0
-42 17 45 304 0
-42 17 45 -304 0
-22 -61 11 305 0
-22 -61 11 -305 0
56 27 59 306 0
56 27 59 -306 0
15 -25 17 307 0
15 -25 17 -307 0
64 11 35 308 0
64 11 35 -308 0
46 55 -45 309 0
46 55 -45 -309 0
-32 49 -55 310 0
-32 49 -55 -310 0
-58 15 74 311 0
-58 15 74 -311 0
-57 -31 39 312 0
-57 -31 39 -312 0
1 56 23 313 0
1 56 23 -313 0
64 -54 -16 314 0
64 -54 -16 -314 0
28 -26 -16 315 0
28 -26 -16 -315 0
-54 51 66 316 0
-54 51 66 -316 0
67 -73 38 317 0
67 -73 38 -317 0
-43 72 10 318 0
-43 72 10 -318 0
-26 -21 -73 319 0
-26 -21 -73 -319 0
10 7 18 320 0
10 7 18 -320 0
-1 -67 62 321 0
-1 -67 62 -321 0
73 -35 -1 322 0
73 -35 -1 -322 0
-64 32 68 323 0
-64 32 68 -323 0
17 48 45 324 0
17 48 45 -324 0
5 -24 -30 325 0
5 -24 -30 -325 0
33 -50 35 326 0
33 -50 35 -326 0
23 38 -73 327 0
23 38 -73 -327 0
60 11 -6 328 0
60 11 -6 -328 0
4 15 68 329 0
4 15 68 -329 0
57 -41 -65 330 0
57 -41 -65 -330 0
-59 -18 -5 331 0
-59 -18 -5 -331 0
-25 63 39 332 0
-25 63 39 -332 0
-36 -16 10 333 0
-36 -16 10 -333 0
20 54 -25 334 0
20 54 -25 -334 0
28 63 9 335 0
28 63 9 -335 0
-57 -71 -25 336 0
-57 -71 -25 -336 0
-28 -7 -52 337 0
-28 -7 -52 -337 0
16 -20 -73 338 0
16 -20 -73 -338 0
-36 6 26 339 0
-36 6 26 -339 0
28 -46 20 340 0
28 -46 20 -340 0
-43 45 29 341 0
-43 45 29 -341 0
55 -57 18 342 0
55 -57 18 -342 0
13 64 21 343 0
13 64 21 -343 0
57 49 12 344 0
57 49 12 -344 0
-40 61 -75 345 0
-40 61 -75 -345 0
-18 -64 -32 346 0
-18 -64 -32 -346 0
-57 -35 43 347 0
-57 -35 43 -347 0
75 3 4 348 0
75 3 4 -348 0
26 70 67 349 0
26 70 67 -349 0
-67 43 11 350 0
-67 43 11 -350 0
55 44 -20 351 0
55 44 -20 -351 0
-73 -71 33 352 0
-73 -71 33 -352 0
-56 69 -26 353 0
-56 69 -26 -353 0
-3 39 33 354 0
-3 39 33 -354 0
19 -68 2 355 0
19 -68 2 -355 0
60 -39 73 356 0
60 -39 73 -356 0
3 47 8 357 0
3 47 8 -357 0
59 -68 70 358 0
59 -68 70 -358 0
48 -55 -46 359 0
48 -55 -46 -359 0
40 68 -42 360 0
40 68 -42 -360 0
7 62 68 361 0
7 62 68 -361 0
-14 9 12 362 0
-14 9 12 -362 0
-32 -14 8 363 0
-32 -14 8 -363 0
14 46 61 364 0
14 46 61 -364 0
57 13 72 365 0
57 13 72 -365 0
19 -41 -8 366 0
19 -41 -8 -366 0
15 -65 -52 367 0
15 -65 -52 -367 0
-39 70 10 368 0
-39 70 10 -368 0
-61 -49 -47 369 0
-61 -49 -47 -369 0
-4 49 75 370 0
-4 49 75 -370 0
15 -3 -27 371 0
15 -3 -27 -371 0
-40 43 -47 372 0
-40 43 -47 -372 0
-29 75 -54 373 0
-29 75 -54 -373 0
60 -9 26 374 0
60 -9 26 -374 0
34 -48 -21 375 0
34 -48 -21 -375 0
54 59 -61 376 0
54 59 -61 -376 0
-1 48 7 377 0
-1 48 7 -377 0
-17 -67 -12 378 0
-17 -67 -12 -378 0
-50 51 -55 379 0
-50 51 -55 -379 0
17 -41 -27 380 0
17 -41 -27 -380 0
21 -53 -55 381 0
21 -53 -55 -381 0
-45 60 -35 382 0
-45 60 -35 -382 0
-62 -49 -63 383 0
-62 -49 -63 -383 0
44 18 30 384 0
44 18 30 -384 0
4 -34 2 385 0
4 -34 2 -385 0
26 17 -55 386 0
26 17 -55 -386 0
67 -66 -22 387 0
67 -66 -22 -387 0
23 28 -27 388 0
23 28 -27 -388 0
64 70 13 389 0
64 70 13 -389 0
-55 -22 -64 390 0
-55 -22 -64 -390 0
58 3 1 391 0
58 3 1 -391 0
74 -13 -21 392 0
74 -13 -21 -392 0
-47 6 27 393 0
-47 6 27 -393 0
-46 -26 -34 394 0
-46 -26 -34 -394 0
43 -65 51 395 0
43 -65 51 -395 0
-6 -43 -36 396 0
-6 -43 -36 -396 0
-41 -49 -70 397 0
-41 -49 -70 -397 0
62 46 53 398 0
62 46 53 -398 0
-34 73 -68 399 0
-34 73 -68 -399 0
-29 66 -32 400 0
-29 66 -32 -400 0
401 402 403 404 0
401 402 403 -404 0
401 402 -403 404 0
401 402 -403 -404 0
401 -402 403 404 0
401 -402 403 -404 0
401 -402 -403 404 0
401 -402 -403 -404 0
-401 402 403 404 0
-401 402 403 -404 0
-401 402 -403 404 0
-401 402 -403 -404 0
-401 -402 403 404 0
-401 -402 403 -404 0
-401 -402 -403 404 0
-401 -402 -403 -404 0
405 406 407 408 0
405 406 407 -408 0
405 406 -407 408 0
405 406 -407 -408 0
405 -406 407 408 0
405 -406 407 -408 0
405 -406 -407 408 0
405 -406 -407 -408 0
-405 406 407 408 0
-405 406 407 -408 0
-405 406 -407 408 0
-405 406 -407 -408 0
-405 -406 407 408 0
-405 -406 407 -408 0
-405 -406 -407 408 0
-405 -406 -407 -408 0
409 410 411 412 0
409 410 411 -412 0
409 410 -411 412 0
409 410 -411 -412 0
409 -410 411 412 0
409 -410 411 -412 0
409 -410 -411 412 0
409 -410 -411 -412 0
-409 410 411 412 0
-409 410 411 -412 0
-409 410 -411 412 0
-409 410 -411 -412 0
-409 -410 411 412 0
-409 -410 411 -412 0
-409 -410 -411 412 0
-409 -410 -411 -412 0
